p cnf 16 102
-11 1 2 4 5 6 7 8 10 11 13 14 15 0
-10 -12 -5 -9 -4 3 4 5 6 8 9 10 11 12 14 16 0
-13 -11 6 7 8 10 11 13 15 16 0
-3 -9 -10 -12 -15 -1 1 2 3 4 5 6 8 9 10 11 12 13 15 0
-5 -16 16 5 0
-16 -8 -5 -9 -12 -14 -6 -7 -11 1 5 6 7 8 9 11 12 13 14 16 0
-2 -12 -13 2 12 13 0
-11 -3 -16 -10 -12 -2 -9 2 3 6 9 10 11 12 16 0
-15 -12 -1 1 12 15 0
-15 -10 -6 -1 -5 -2 -11 -13 1 2 5 6 10 11 13 15 0
-3 -10 -16 -1 -12 -6 -13 -4 -7 -15 -5 1 3 4 5 6 7 8 9 10 12 13 15 16 0
-10 -6 -13 -11 -8 -3 -7 -1 -2 1 2 3 4 5 6 7 8 9 10 11 12 13 14 15 16 0
-4 -2 -6 -7 -5 -16 1 2 4 5 6 7 8 9 10 11 12 13 14 15 16 0
-8 -14 8 12 13 14 0
-13 -10 -12 1 2 3 5 7 9 10 11 12 13 15 0
 14 0
 1 2 3 6 7 8 10 13 15 0
-11 -6 -8 -10 -14 -7 -16 2 3 6 7 8 10 11 12 13 14 16 0
-3 -15 -8 -6 -4 -7 -2 -12 -14 -1 -5 -13 -10 1 2 3 4 5 6 7 8 9 10 12 13 14 15 16 0
-4 -2 -15 -6 -10 -13 2 4 6 7 10 12 13 14 15 0
-3 -15 -9 -10 -12 -2 -1 -8 -14 1 2 3 8 9 10 12 14 15 0
-5 -9 -15 -14 -3 2 3 5 6 7 9 13 14 15 0
-5 -15 -14 -1 -16 1 2 3 4 5 6 8 9 10 11 13 14 15 16 0
-16 -5 16 1 4 5 0
-4 -10 -14 -5 -12 -6 -15 -13 -9 4 5 6 9 10 12 13 14 15 0
-3 -9 -15 -13 -16 -7 -4 -5 -1 1 2 3 4 5 6 7 8 9 10 11 12 13 14 15 16 0
-3 -4 -13 -14 -1 -8 -2 -11 -12 -6 1 2 3 4 5 6 7 8 9 10 11 12 13 14 15 16 0
-15 -14 -16 -7 5 7 14 15 16 0
-13 2 3 4 5 6 8 9 11 13 16 0
 1 2 7 8 11 12 13 0
-4 11 4 0
-6 -1 -2 1 2 3 5 6 7 9 11 12 13 14 15 16 0
-13 -14 1 3 5 6 8 9 10 12 13 14 15 16 0
-7 -12 1 3 4 7 10 11 12 13 16 0
-8 -16 -12 -3 -2 -10 -15 -7 -9 -13 -4 -1 -6 1 2 3 4 5 6 7 8 9 10 11 12 13 14 15 16 0
-10 -14 -16 -9 -7 -15 -2 -5 -4 -12 1 2 3 4 5 6 7 8 9 10 11 12 14 15 16 0
-14 -9 -2 9 2 14 0
-11 -5 11 5 0
-13 -10 -7 5 6 7 9 10 11 12 13 16 0
-15 1 11 5 15 0
-4 -8 -7 1 2 3 4 7 8 10 15 16 0
-14 -3 -6 -12 -4 -8 3 4 6 8 12 14 0
-5 -16 1 3 4 5 6 9 11 14 16 0
-16 -12 -6 -13 -10 -11 -1 -3 -15 -5 -8 -2 -14 -9 1 2 3 4 5 6 7 8 9 10 11 12 13 14 15 16 0
-5 -10 10 5 0
-12 -10 -7 -15 -1 -5 1 5 7 10 12 15 0
-3 -15 -7 -10 -11 -14 -4 1 3 4 5 6 7 8 10 11 13 14 15 16 0
-7 -3 16 3 5 7 0
-1 -15 -13 -11 -8 1 3 4 6 7 8 9 10 11 12 13 14 15 16 0
-10 -8 -14 -3 -13 -5 -2 1 2 3 4 5 7 8 9 10 11 12 13 14 15 0
-15 -8 1 2 3 4 5 6 7 8 9 11 12 13 14 15 16 0
-13 -12 -14 -3 -6 -1 1 2 3 5 6 9 11 12 13 14 0
 1 2 3 4 6 9 11 12 13 14 15 16 0
-3 8 10 3 0
-16 -8 -10 -7 -5 5 7 8 10 16 0
-3 -9 -8 -11 -13 -7 -14 -10 -1 -16 -6 -4 -5 -2 1 2 3 4 5 6 7 8 9 10 11 12 13 14 16 0
-6 -15 -14 -13 -2 -4 -9 -7 -12 1 2 3 4 5 6 7 8 9 10 11 12 13 14 15 0
-14 -11 -6 -15 -4 -1 -9 -10 -16 -12 -3 -8 1 3 4 6 7 8 9 10 11 12 14 15 16 0
-6 -13 -8 -11 -12 -15 -7 -4 -10 -5 -14 -1 1 4 5 6 7 8 10 11 12 13 14 15 16 0
-9 -14 9 14 0
-5 -2 -1 -14 -11 -10 1 2 5 6 8 10 11 12 13 14 16 0
-13 1 4 13 15 0
-5 -4 -11 -2 -8 -16 1 2 3 4 5 7 8 9 10 11 12 16 0
-11 -14 -9 -4 -1 -12 1 4 6 9 11 12 14 0
-15 12 7 15 0
-10 -12 -14 -6 -16 -15 -3 -13 -11 -7 3 6 7 10 11 12 13 14 15 16 0
-12 -11 -4 -6 -2 2 3 4 6 11 12 0
-7 -10 -13 -6 -11 -5 -15 5 6 7 8 10 11 13 15 16 0
-2 -6 2 6 7 0
-10 1 5 9 10 12 15 0
-8 -10 -16 -12 -7 -6 -13 1 2 3 4 5 6 7 8 9 10 11 12 13 14 15 16 0
-12 -1 1 3 4 7 8 9 10 11 12 13 0
-11 -6 -1 -9 -12 -3 -2 -10 -16 -4 1 2 3 4 6 9 10 11 12 16 0
-11 -16 -2 -4 -8 1 2 4 5 6 7 8 10 11 15 16 0
-4 9 4 5 0
 10 15 0
-16 16 4 0
-5 -12 5 6 10 11 12 16 0
-14 -16 -12 -2 -15 -6 -11 -3 -8 -7 1 2 3 4 6 7 8 9 11 12 13 14 15 16 0
-1 -16 -10 -8 1 8 9 10 16 0
-2 -6 -13 2 3 4 5 6 13 0
-12 -16 -7 5 7 10 11 12 13 14 15 16 0
-13 -11 -14 -4 -2 -16 -7 -15 -10 2 4 7 10 11 13 14 15 16 0
-16 -3 3 4 5 6 7 8 9 10 11 12 14 16 0
-8 -14 8 14 0
-12 -8 -7 8 9 12 7 0
-5 1 2 5 6 9 0
 8 9 12 0
-16 -5 -3 -13 16 13 3 5 0
-15 -16 -10 -13 -9 -4 4 9 10 13 15 16 0
-8 -7 -2 -1 -11 -13 1 2 3 5 7 8 9 10 11 13 16 0
-16 -7 -13 1 3 4 5 6 7 8 9 11 12 13 14 15 16 0
-1 -15 -12 -14 -8 -6 -16 -4 -7 -2 -10 -11 -5 1 2 4 5 6 7 8 10 11 12 13 14 15 16 0
-2 -11 -1 -5 -3 1 2 3 5 9 11 16 0
-6 -11 -12 -15 4 6 7 11 12 13 15 0
-10 -15 -5 10 11 5 15 0
-15 -16 -13 -4 -14 -11 -10 -9 -8 -6 3 4 6 8 9 10 11 13 14 15 16 0
 2 4 8 11 13 0
-7 -16 -4 -14 -2 2 4 5 7 10 14 16 0
-11 -14 -3 -1 -13 -10 1 3 10 11 13 14 0
